p cnf 23 9
e 1 2 0
a 3 0
e 4 0
a 5 0
e 6 7 0
a 8 0
e 9 0
a 10 11 0
e 12 0
a 13 14 15 16 0
e 17 0
a 18 0
e 19 20 0
a 21 0
e 22 23 0
-1 -18 21 0
-23 18 0
-10 -13 22 0
-6 4 -9 -8 17 0
3 -13 -20 19 0
-19 -4 20 -11 -8 0
12 21 7 0
-14 23 -21 1 -4 0
-14 -15 -17 12 -13 0
